(declare-fun temp270_1 () (_ BitVec 64))
(declare-fun var267855 () (_ BitVec 64))
(declare-fun k!0 () Bool)
(declare-fun ARGNAME_input_NAMEEND_DIM () (_ BitVec 64))
(declare-fun ARGNAME_target_NAMEEND_DIM () (_ BitVec 64))
(declare-fun temp270_2 () (_ BitVec 64))
(declare-fun ARGNAME_label_smoothing_NAMEEND () (_ BitVec 64))
(declare-fun var70865 () (_ BitVec 64))
(declare-fun temp270_3 () (_ BitVec 64))
(declare-fun temp270_4 () (_ BitVec 64))
(declare-fun var70867 () (_ BitVec 64))
(declare-fun temp270_5 () (_ BitVec 64))
(declare-fun temp270_6 () (_ BitVec 64))
(declare-fun var921507 () (_ BitVec 64))
(declare-fun var921510 () (_ BitVec 64))
(declare-fun var1117505 () (_ BitVec 64))
(declare-fun temp270_8 () (_ BitVec 64))
(declare-fun temp270_7 () (_ BitVec 64))
(declare-fun temp270_9 () (_ BitVec 64))
(declare-fun var917872 () (_ BitVec 64))
(declare-fun temp270_10 () (_ BitVec 64))
(declare-fun temp270_11 () (_ BitVec 64))
(declare-fun ARGNAME_weight_NAMEEND_DIMSIZE
             ()
             (Array (_ BitVec 64) (_ BitVec 64)))
(declare-fun temp270_12 () (_ BitVec 64))
(declare-fun temp270_13 () (_ BitVec 64))
(declare-fun temp270_14 () (_ BitVec 64))
(declare-fun temp270_15 () (_ BitVec 64))
(declare-fun temp270_16 () (_ BitVec 64))
(declare-fun temp270_17 () (_ BitVec 64))
(declare-fun temp270_18 () (_ BitVec 64))
(declare-fun temp270_19 () (_ BitVec 64))
(declare-fun temp270_20 () (_ BitVec 64))
(declare-fun temp270_21 () (_ BitVec 64))
(declare-fun temp270_22 () (_ BitVec 64))
(declare-fun temp270_23 () (_ BitVec 64))
(declare-fun temp270_24 () (_ BitVec 64))
(declare-fun temp270_25 () (_ BitVec 64))
(declare-fun temp270_26 () (_ BitVec 64))
(declare-fun temp270_27 () (_ BitVec 64))
(declare-fun temp270_28 () (_ BitVec 64))
(declare-fun ARGNAME_weight_NAMEEND_DIM () (_ BitVec 64))
(declare-fun temp270_29 () (_ BitVec 64))
(declare-fun temp270_30 () (_ BitVec 64))
(declare-fun var921553 () (_ BitVec 64))
(declare-fun var2690473 () (_ BitVec 64))
(declare-fun temp270_31 () (_ BitVec 64))
(declare-fun var3280385 () (_ BitVec 64))
(declare-fun temp270_33 () (_ BitVec 64))
(declare-fun temp270_32 () (_ BitVec 64))
(declare-fun temp270_34 () (_ BitVec 64))
(declare-fun var4330259 () (_ BitVec 64))
(declare-fun temp270_35 () (_ BitVec 64))
(declare-fun temp270_36 () (_ BitVec 64))
(declare-fun var4330260 () (_ BitVec 64))
(declare-fun var4330267 () (_ BitVec 64))
(declare-fun var4330273 () (_ BitVec 64))
(declare-fun temp270_37 () (_ BitVec 64))
(declare-fun var4330274 () (_ BitVec 64))
(declare-fun temp270_38 () (_ BitVec 64))
(declare-fun temp270_39 () (_ BitVec 64))
(declare-fun var4330275 () (_ BitVec 64))
(declare-fun var4330282 () (_ BitVec 64))
(declare-fun temp270_41 () (_ BitVec 64))
(declare-fun temp270_40 () (_ BitVec 64))
(declare-fun temp270_42 () (_ BitVec 64))
(declare-fun ARGNAME_reduction_NAMEEND () (_ BitVec 64))
(assert (= var267855
   (ite (= ARGNAME_input_NAMEEND_DIM ARGNAME_target_NAMEEND_DIM)
        #x0000000000000001
        #x0000000000000000)))
(assert (= temp270_1 #x0000000000000001))
(assert (= var267855 temp270_1))
(assert (= temp270_2 #x0000000000000000))
(assert (= var70865
   (ite (bvsgt ARGNAME_label_smoothing_NAMEEND temp270_2)
        #x0000000000000001
        #x0000000000000000)))
(assert (= temp270_3 #x0000000000000001))
(assert (= var70865 temp270_3))
(assert (= temp270_4 #x0000000000000001))
(assert (= var70867
   (ite (bvsgt ARGNAME_label_smoothing_NAMEEND temp270_4)
        #x0000000000000001
        #x0000000000000000)))
(assert (= temp270_5 #x0000000000000000))
(assert (= var70867 temp270_5))
(assert (= temp270_6 #x0000000000000001))
(assert (= var921507
   (ite (distinct ARGNAME_input_NAMEEND_DIM temp270_6)
        #x0000000000000001
        #x0000000000000000)))
(assert (= var921510 var921507))
(assert (= var1117505 var921510))
(assert (= temp270_8 #x0000000000000001))
(assert (= temp270_7 temp270_8))
(assert (= temp270_9 #x0000000000000000))
(assert (= var917872 temp270_9))
(assert (= temp270_10 #x0000000000000000))
(assert (= temp270_11 temp270_10))
(assert (= temp270_12 (select ARGNAME_weight_NAMEEND_DIMSIZE temp270_11)))
(assert (= temp270_13 #x0000000000000001))
(assert (= temp270_14 temp270_13))
(assert (= temp270_15 (select ARGNAME_weight_NAMEEND_DIMSIZE temp270_14)))
(assert (= temp270_16 #x0000000000000002))
(assert (= temp270_17 temp270_16))
(assert (= temp270_18 (select ARGNAME_weight_NAMEEND_DIMSIZE temp270_17)))
(assert (= temp270_19 #x0000000000000003))
(assert (= temp270_20 temp270_19))
(assert (= temp270_21 (select ARGNAME_weight_NAMEEND_DIMSIZE temp270_20)))
(assert (= temp270_22 #x0000000000000004))
(assert (= temp270_23 temp270_22))
(assert (= temp270_24 (select ARGNAME_weight_NAMEEND_DIMSIZE temp270_23)))
(assert (= temp270_25 #x0000000000000005))
(assert (= temp270_26 temp270_25))
(assert (= temp270_27 (select ARGNAME_weight_NAMEEND_DIMSIZE temp270_26)))
(assert (= temp270_28 #x0000000000000000))
(assert (= temp270_29
   (ite (bvslt var917872 temp270_28)
        (bvadd ARGNAME_weight_NAMEEND_DIM var917872)
        var917872)))
(assert (= temp270_30 (select ARGNAME_weight_NAMEEND_DIMSIZE temp270_29)))
(assert (= var921553 temp270_30))
(assert (bvslt (ite (bvslt var917872 temp270_28)
            (bvadd ARGNAME_weight_NAMEEND_DIM var917872)
            var917872)
       ARGNAME_weight_NAMEEND_DIM))
(assert (= var2690473 var921510))
(assert (= temp270_31 #x0000000000000000))
(assert (= var3280385 temp270_31))
(assert (= temp270_33 #x0000000000000001))
(assert (= temp270_32 temp270_33))
(assert (= temp270_34 #x0000000000000000))
(assert (= var4330259
   (ite (bvslt temp270_32 temp270_34) #x0000000000000001 #x0000000000000000)))
(assert (= temp270_35 #xffffffffffffffff))
(assert (= temp270_36 #x0000000000000000))
(assert (= var4330260 (ite (= var4330259 #x0000000000000001) temp270_35 temp270_36)))
(assert (= var4330267 var4330260))
(assert (= var4330273 var4330267))
(assert (= temp270_37 #x0000000000000000))
(assert (= var4330274
   (ite (bvslt var4330273 temp270_37) #x0000000000000001 #x0000000000000000)))
(assert (= temp270_38 #x0000000000000000))
(assert (= temp270_39 #xffffffffffffffff))
(assert (= var4330275 (ite (= var4330274 #x0000000000000001) temp270_38 temp270_39)))
(assert (= var4330282 var4330275))
(assert (= temp270_41 #x0000000000000005))
(assert (= temp270_40 temp270_41))
(assert (= temp270_42 #x0000000000000001))
(assert (or false (= ARGNAME_reduction_NAMEEND temp270_42)))
(model-add temp270_1 () (_ BitVec 64) #x0000000000000001)
(model-add var267855 () (_ BitVec 64) #x0000000000000001)
(model-del k!0)
(model-add ARGNAME_input_NAMEEND_DIM
           ()
           (_ BitVec 64)
           (ite k!0
                ARGNAME_target_NAMEEND_DIM
                (bvnot ARGNAME_target_NAMEEND_DIM)))





